p cnf 524 1227
c ind 502 507 508 504 506 510 492 503 467 484 0
c ind 498 521 463 464 485 514 520 499 500 505 0
c ind 495 496 522 515 493 497 518 501 517 466 0
c ind 475 489 494 472 457 513 452 456 480 512 0
c ind 454 453 519 455 479 486 491 488 471 490 0
c ind 511 509 516 468 474 483 458 476 477 462 0
c ind 481 465 482 460 478 473 470 459 461 469 0
c ind 487 1 0
c ret 282 406 407 408 409 410 411 412 413 283 0
c ret 318 414 319 415 416 417 418 320 419 420 0
c ret 421 422 423 284 424 425 426 427 428 321 0
c ret 429 430 322 285 431 432 433 434 435 436 0
c ret 437 438 439 440 441 442 443 444 286 445 0
c ret 446 447 448 449 450 451 287 288 323 324 0
c ret 325 326 289 274 290 291 327 328 329 292 0
c ret 330 293 294 331 295 332 296 333 334 297 0
c ret 275 298 335 336 337 299 338 339 340 341 0
c ret 300 342 301 343 344 302 345 346 303 347 0
c ret 348 349 276 350 351 352 353 354 355 304 0
c ret 356 357 358 305 306 307 308 359 309 360 0
c ret 361 277 310 311 362 363 364 365 366 278 0
c ret 367 368 369 370 371 372 373 374 375 279 0
c ret 376 377 378 379 380 381 382 312 383 313 0
c ret 384 385 386 314 315 387 280 388 389 390 0
c ret 391 316 392 393 317 394 395 396 397 281 0
c ret 398 399 400 401 402 403 404 405 0
2 3 -45 -177 0
2 -8 -45 -177 0
-2 177 0
-2 45 0
-2 -3 8 0
3 -4 -5 0
-3 4 0
-3 5 0
4 329 -377 0
4 -377 -378 0
-4 377 0
-4 -329 378 0
5 -278 -424 0
5 -6 278 0
-5 6 278 0
-5 -278 424 0
6 -280 -403 0
6 -7 280 0
-6 7 280 0
-6 -280 403 0
7 -282 -379 0
7 282 -380 0
-7 282 380 0
-7 -282 379 0
8 26 -274 0
8 9 -274 0
-8 274 0
-8 -9 -26 0
9 -24 -278 0
9 10 278 0
-9 -10 278 0
-9 24 -278 0
10 -21 -280 0
10 11 280 0
-10 -11 280 0
-10 21 -280 0
11 -14 -282 0
11 12 282 0
-11 -12 282 0
-11 14 -282 0
12 -300 -321 0
12 -13 -321 0
-12 321 0
-12 13 300 0
13 -293 -294 -322 0
-13 293 0
-13 294 0
-13 322 0
12 14 15 0
14 -15 350 0
-12 -14 15 0
-14 -15 -350 0
15 16 301 0
-15 -301 0
-15 -16 0
16 17 -351 0
-16 351 0
-16 -17 0
17 18 354 0
17 18 355 0
-17 -18 0
-17 -354 -355 0
18 19 -20 301 351 0
-18 20 0
-18 -19 0
-18 -301 0
-18 -351 0
19 302 311 -358 0
-19 358 0
-19 -311 0
-19 -302 0
20 -352 354 355 0
-20 352 0
-20 -355 0
-20 -354 0
21 -22 -375 0
11 21 22 0
-11 -21 22 0
-21 -22 375 0
16 22 -23 0
-16 -22 0
-22 23 0
23 282 301 0
-23 -282 0
-23 -301 0
10 24 25 0
24 -25 401 0
-10 -24 25 0
-24 -25 -401 0
16 -23 25 280 0
23 -25 0
-16 -25 0
-25 -280 0
26 -39 436 442 0
26 -27 -39 442 0
-26 39 0
-26 -442 0
-26 27 -436 0
27 34 432 434 0
27 -28 34 432 0
-27 -432 0
-27 -34 0
-27 28 -434 0
28 -278 409 0
28 -29 278 0
-28 -278 -409 0
-28 29 278 0
29 -280 386 0
29 -30 280 0
-29 -280 -386 0
-29 30 280 0
30 -282 361 0
30 -31 282 0
-30 -282 -361 0
-30 31 282 0
31 -33 308 0
31 -33 -319 0
31 32 -33 0
-31 33 0
-31 -32 -308 319 0
32 338 340 341 -342 0
-32 342 0
-32 -341 0
-32 -338 0
-32 -340 0
33 340 341 0
33 319 338 0
33 338 341 0
33 319 340 0
-33 -338 -340 0
-33 -319 -341 0
34 35 -409 0
34 35 -433 0
-34 -35 0
-34 409 433 0
35 36 278 0
35 -278 386 408 0
-35 -278 -386 0
-35 -36 278 0
-35 -278 -408 0
36 -280 -361 0
36 37 280 0
36 -280 -385 0
-36 -37 280 0
-36 -280 361 385 0
37 -38 282 0
-37 -282 0
-37 38 0
38 -319 338 0
38 319 337 0
-38 319 -337 0
-38 -319 -338 0
39 -278 406 0
39 -40 278 0
-39 -278 -406 0
-39 40 278 0
40 -280 383 0
40 -41 280 0
-40 -280 -383 0
-40 41 280 0
41 -282 359 0
41 -42 282 0
-41 -282 -359 0
-41 42 282 0
42 43 290 0
42 43 312 313 0
-42 -43 0
-42 -290 -313 0
-42 -290 -312 0
43 44 291 -312 -313 0
-43 -291 0
-43 -44 0
-43 313 0
-43 312 0
44 -314 -315 0
-44 314 0
-44 315 0
45 -55 -69 0
45 46 -69 278 0
-45 69 0
-45 -46 55 0
-45 55 -278 0
46 47 54 0
10 46 47 -50 0
-46 -47 0
-10 -46 -54 0
-46 50 -54 0
47 -48 402 405 0
47 48 49 402 -405 0
-47 -48 -405 0
-47 48 -49 0
-47 -402 0
-47 48 405 0
48 280 282 0
-48 -280 0
-48 -282 0
-4 -6 49 0
4 -49 0
6 -49 0
-40 50 -51 404 0
-40 50 395 404 0
40 -50 0
-50 -404 0
-50 51 -395 0
51 52 386 393 0
-29 51 52 393 0
-51 -52 0
-51 -393 0
29 -51 -386 0
52 53 -361 0
52 53 -385 0
-52 -53 0
-52 361 385 0
-37 53 280 0
-53 -280 0
37 -53 0
48 -49 54 -402 0
-54 402 0
-48 -54 0
49 -54 0
-24 55 -56 66 -68 0
-55 68 0
24 -55 0
-55 56 0
-55 -66 0
-51 56 -58 -60 0
56 57 -58 -60 0
-56 60 0
-56 58 0
51 -56 -57 0
36 57 394 0
57 386 394 0
-57 -394 0
-36 -57 -386 0
48 58 0
40 58 59 0
58 59 292 0
-48 -58 -59 0
-40 -48 -58 -292 0
59 -327 328 -329 0
-59 327 0
-59 -328 0
-59 329 0
60 61 63 0
-60 -61 0
-60 -63 0
61 62 398 0
61 -280 398 0
-61 -398 0
-61 -62 280 0
62 282 297 0
-62 -282 0
-62 -297 0
63 64 395 0
-63 -395 0
-63 -64 0
64 -65 -386 0
64 386 397 0
-64 386 -397 0
-64 65 -386 0
65 318 319 0
65 306 -319 0
-65 -318 319 0
-65 -306 -319 0
65 66 395 -396 0
65 66 67 395 0
-66 -395 0
-65 -66 0
-66 -67 396 0
67 361 385 0
-67 -361 0
-67 -385 0
-48 59 61 68 -278 0
48 -68 0
-61 -68 0
-68 278 0
-59 -68 0
-9 69 71 -87 0
69 -70 71 -87 0
-69 87 0
-69 -71 0
9 -69 70 0
-23 70 278 280 0
23 -70 0
-70 -280 0
-70 -278 0
71 78 -280 0
71 72 74 78 0
-71 -78 0
-71 -72 280 0
-71 -74 280 0
72 282 376 382 0
72 73 -282 376 -382 0
-72 -282 382 0
-72 -73 -382 0
-72 -376 0
-72 282 -382 0
-4 73 -282 -379 0
-4 73 282 -380 0
4 -73 0
-73 -282 379 0
-73 282 380 0
-73 74 75 -282 -376 0
73 -74 0
-74 -75 0
-74 282 0
-74 376 0
-11 75 -77 370 0
-11 75 -76 -77 0
-75 77 0
11 -75 0
-75 76 -370 0
-37 76 361 368 0
-30 -37 76 368 0
37 -76 0
-76 -368 0
30 -76 -361 0
-41 77 381 0
-77 -381 0
41 -77 0
21 78 -79 82 -85 0
-78 79 0
-78 -82 0
-21 -78 0
-78 85 0
-76 79 -80 0
79 81 -370 0
-76 79 -370 0
79 -80 81 0
76 -79 -81 0
-79 80 370 0
-65 80 -361 0
80 361 371 0
-80 361 -371 0
65 -80 -361 0
-37 81 369 0
81 361 369 0
-81 -369 0
37 -81 -361 0
82 83 282 0
-82 -282 0
-82 -83 0
59 83 84 0
-59 -83 0
-83 -84 0
-42 84 -292 0
-84 292 0
42 -84 0
-65 85 -86 0
85 -86 -370 0
-85 86 0
65 -85 370 0
86 -280 282 297 0
86 -280 282 -372 0
-86 280 0
-86 -282 0
-86 -297 372 0
10 87 -89 -94 0
87 -88 -89 -94 0
-87 94 0
-87 89 0
-10 -87 88 0
-23 88 280 0
-88 -280 0
23 -88 0
27 89 90 93 0
-27 89 -91 -93 0
89 90 -91 -93 0
-89 91 -93 0
-27 -89 93 0
27 -89 -90 0
-35 90 435 0
90 434 435 0
-90 -435 0
35 -90 -434 0
91 92 409 416 0
-28 91 92 416 0
-91 -92 0
-91 -416 0
28 -91 -409 0
35 92 -386 0
35 92 -408 0
-35 -92 0
-92 386 408 0
-35 93 417 0
93 409 417 0
-93 -417 0
35 -93 -409 0
91 94 -95 -101 0
94 -95 -100 -101 0
-94 101 0
-94 95 0
-91 -94 100 0
-11 -56 95 -96 0
-23 -56 95 -96 0
-95 96 0
56 -95 0
11 23 -95 0
-58 -79 96 98 0
-58 -79 96 -97 0
79 -96 0
58 -96 0
-96 97 -98 0
40 97 278 0
-97 -278 0
-40 -97 0
98 -99 -292 0
-98 292 0
-98 99 0
99 278 280 282 0
-99 -278 0
-99 -282 0
-99 -280 0
-57 100 278 0
-100 -278 0
57 -100 0
-51 101 -102 174 0
100 101 -102 174 0
-101 102 0
-101 -174 0
51 -100 -101 0
51 102 -103 0
-81 102 -103 280 0
-102 103 0
-51 81 -102 0
-51 -102 -280 0
103 -104 -171 343 0
76 103 -104 -171 0
-103 171 0
-103 104 0
-76 -103 -343 0
104 -105 -132 -142 -167 0
-104 167 0
-104 105 0
-104 142 0
-104 132 0
80 105 -106 112 -113 0
-105 106 0
-105 -112 0
-80 -105 0
-105 113 0
59 99 106 107 -108 0
-106 108 0
-106 -107 0
-59 -106 0
-99 -106 0
107 -297 347 0
107 -297 323 0
-107 297 0
-107 -323 -347 0
108 109 -110 -277 411 0
108 109 -110 277 -411 0
-108 110 0
-108 277 411 0
-108 -109 0
-108 -277 -411 0
109 293 -301 304 0
109 293 300 -301 0
-109 -293 0
-109 301 0
-109 -300 -304 0
110 111 291 0
110 111 -290 0
110 111 292 0
-110 -111 0
-110 290 -291 -292 0
111 305 -306 -307 0
-111 307 0
-111 306 0
-111 -305 0
-65 112 -409 0
112 409 420 0
-112 409 -420 0
65 -112 -409 0
113 -114 -119 -121 -124 0
-113 124 0
-113 114 0
-113 121 0
-113 119 0
114 -115 -116 -117 -118 0
-114 118 0
-114 115 0
-114 117 0
-114 116 0
115 -367 -387 388 -392 0
-115 392 0
-115 367 0
-115 387 0
-115 -388 0
116 331 -335 -362 363 0
-116 -331 0
-116 -363 0
-116 362 0
-116 335 0
117 -426 427 -431 -443 0
-117 443 0
-117 426 0
-117 431 0
-117 -427 0
118 -395 -410 411 -415 0
-118 415 0
-118 395 0
-118 410 0
-118 -411 0
119 -120 310 0
119 -120 -305 -344 0
-119 120 0
-119 -310 344 0
-119 305 -310 0
120 -275 309 0
120 -308 -427 0
120 -275 -308 0
120 309 -427 0
-120 308 -309 0
-120 275 427 0
121 122 -123 -310 -330 0
-121 123 0
-121 310 0
-121 330 0
-121 -122 0
122 302 311 0
-122 -302 0
-122 -311 0
123 331 427 0
123 275 283 0
123 283 427 0
123 275 331 0
-123 -283 -331 0
-123 -275 -427 0
65 124 125 -126 -130 0
-65 -124 0
-124 130 0
-124 126 0
-124 -125 0
62 125 372 0
-125 -372 0
-62 -125 0
126 127 -128 -281 363 0
126 127 -128 281 -363 0
-126 128 0
-126 281 363 0
-126 -127 0
-126 -281 -363 0
127 -282 364 0
127 -347 364 0
-127 -364 0
-127 282 347 0
128 129 297 0
128 129 -282 0
128 129 -347 0
-128 -129 0
-128 282 -297 347 0
129 -280 389 0
129 -372 389 0
-129 -389 0
-129 280 372 0
-62 130 -412 0
130 -131 -364 0
130 -364 -412 0
-62 130 -131 0
-130 131 412 0
62 -130 364 0
131 278 398 0
-131 -278 0
-131 -398 0
64 132 -133 139 -140 0
-132 133 0
-132 -139 0
-64 -132 0
-132 140 0
133 135 137 -278 0
133 134 135 137 0
-133 -137 0
-133 -135 0
-133 -134 278 0
-48 -59 134 0
48 -134 0
59 -134 0
135 -136 -285 0
135 -285 287 -289 0
-135 285 0
-135 136 -287 0
-135 136 289 0
136 -284 286 -287 288 0
-136 287 0
-136 -288 0
-136 284 0
-136 -286 0
65 137 418 -419 0
65 137 138 418 0
-137 -418 0
-65 -137 0
-137 -138 419 0
138 386 408 0
-138 -386 0
-138 -408 0
-65 139 -434 0
139 434 438 0
-139 434 -438 0
65 -139 -434 0
-65 66 140 0
66 140 -141 0
66 140 -436 0
-66 -140 0
65 -140 141 436 0
141 409 433 437 0
-141 -409 0
-141 -437 0
-141 -433 0
142 -143 -147 -153 -160 0
-142 160 0
-142 143 0
-142 153 0
-142 147 0
12 84 143 -144 0
84 143 -144 301 0
-143 144 0
-84 -143 0
-12 -143 -301 0
144 145 -418 0
-64 144 145 0
-144 -145 0
64 -144 418 0
65 145 344 -345 0
65 145 146 344 0
-145 -344 0
-65 -145 0
-145 -146 345 0
146 339 340 0
146 -319 340 0
146 307 319 -340 0
-146 -307 -340 0
-146 -319 -340 0
-146 319 -339 340 0
147 -148 -149 0
147 -149 -389 -398 0
-147 149 0
-147 148 389 0
-147 148 398 0
-62 148 280 0
-148 -280 0
62 -148 0
149 151 300 0
149 150 151 0
149 151 293 0
-149 -151 0
-149 -150 -293 -300 0
150 -301 -302 303 0
-150 301 0
-150 302 0
-150 -303 0
151 -152 -297 0
151 -297 298 -299 0
-151 297 0
-151 152 -298 0
-151 152 299 0
152 -295 296 0
-152 295 0
-152 -296 0
153 -154 159 -280 0
125 153 -154 159 0
-153 154 0
-153 -159 0
-125 -153 280 0
154 -155 -156 323 0
154 -155 -156 -332 0
-154 156 0
-154 155 0
-154 -323 332 0
155 -294 421 0
155 293 -428 0
155 293 421 0
155 -294 -428 0
-155 -293 294 0
-155 -421 428 0
156 157 158 279 -388 0
156 157 158 -279 388 0
-156 -157 0
-156 279 388 0
-156 -158 0
-156 -279 -388 0
157 293 302 0
-157 -293 0
-157 -302 0
158 283 331 0
-158 -283 0
-158 -331 0
159 -297 316 0
159 -297 298 317 0
-159 297 0
-159 -298 -316 0
-159 -316 -317 0
-112 160 -161 0
160 -161 -418 0
-160 161 0
112 -160 418 0
161 -162 165 0
161 -163 -164 165 0
-161 -165 0
-161 162 164 0
-161 162 163 0
-62 162 278 280 0
62 -162 0
-162 -280 0
-162 -278 0
163 -278 -412 -428 0
163 -398 -412 -428 0
-163 428 0
-163 412 0
-163 278 398 0
164 -421 -439 0
-164 421 0
-164 439 0
65 165 -166 0
65 165 344 0
65 165 370 0
-65 -165 0
-165 166 -344 -370 0
166 305 -320 0
-166 -305 0
-166 320 0
167 168 308 0
167 168 169 170 0
-167 -168 0
-167 -170 -308 0
-167 -169 -308 0
3 168 -274 0
3 168 -276 0
-3 -168 0
-168 274 276 0
-38 169 343 0
-169 -343 0
38 -169 0
-31 -38 170 336 0
-31 -146 170 336 0
-170 -336 0
31 -170 0
38 146 -170 0
63 82 171 172 -173 0
-171 173 0
-171 -172 0
-63 -171 0
-82 -171 0
-169 170 172 0
169 -172 0
-170 -172 0
173 -436 0
-112 -139 173 0
139 -173 436 0
112 -173 436 0
-172 174 -282 0
174 175 -282 0
14 174 -282 0
-174 282 0
-14 172 -174 -175 0
-83 175 176 -347 0
-83 175 176 297 0
83 -175 0
-175 -176 0
-175 -297 347 0
65 176 344 0
-176 -344 0
-65 -176 0
177 178 182 0
-9 177 178 -180 0
9 177 178 180 0
-177 -178 0
-9 -177 180 -182 0
9 -177 -180 -182 0
-3 178 276 0
-3 -9 178 -179 0
3 -178 0
-178 179 -276 0
9 -178 -276 0
-39 -91 179 425 0
-39 179 418 425 0
39 -179 0
-179 -425 0
91 -179 -418 0
180 -468 -489 0
180 -181 -489 0
-180 489 0
-180 181 468 0
181 -461 -462 -490 0
-181 461 0
-181 462 0
-181 490 0
-27 182 -183 -237 477 0
27 182 -183 -237 -477 0
-182 237 0
27 -182 477 0
-182 183 0
-27 -182 -477 0
-39 183 -184 -187 0
39 183 184 -187 0
-183 187 0
-39 -183 184 0
39 -183 -184 0
184 185 186 0
184 185 -482 -483 0
-184 -185 0
-184 -186 482 0
-184 -186 483 0
185 -458 -480 0
185 -458 -481 0
-185 458 0
-185 480 481 0
186 459 -480 -481 0
-186 481 0
-186 480 0
-186 -459 0
187 -188 -195 -236 -513 0
187 -188 -195 236 513 0
-187 188 0
-187 -236 513 0
-187 195 0
-187 236 -513 0
5 188 189 190 0
188 -189 -190 -504 0
188 189 190 -504 0
5 188 -189 -190 0
-188 189 -190 0
-188 -189 190 0
-5 -188 504 0
-17 189 351 0
-17 189 301 0
17 -189 0
-189 -301 -351 0
190 192 -194 0
190 -191 -194 -519 0
-190 194 0
-190 191 -192 0
-190 -192 519 0
191 470 479 0
-191 -470 0
-191 -479 0
192 -193 469 513 516 0
-192 193 0
-192 -516 0
-192 -469 0
-192 -513 0
193 -514 515 0
-193 514 0
-193 -515 0
194 513 515 0
194 469 516 0
194 513 516 0
194 469 515 0
-194 -469 -513 0
-194 -515 -516 0
195 -196 -232 504 0
-5 195 -196 -232 0
-195 232 0
-195 196 0
5 -195 -504 0
196 -197 206 -208 506 0
196 -197 -206 -208 -506 0
-196 208 0
-196 206 -506 0
-196 197 0
-196 -206 506 0
197 -198 200 201 -203 0
-197 203 0
-197 -201 0
-197 198 0
-197 -200 0
198 -199 -469 0
65 -70 198 0
65 198 -469 0
-70 198 -199 0
70 -198 469 0
-65 -198 199 0
199 486 487 0
199 474 -487 0
-199 -486 487 0
-199 -474 -487 0
199 200 473 -488 0
-200 -473 0
-200 488 0
-199 -200 0
201 -202 -469 -470 471 0
-201 202 0
-201 469 0
-201 470 0
-201 -471 0
202 -461 -468 0
-202 461 0
-202 468 0
-141 203 204 205 488 0
141 203 204 205 -488 0
-203 -204 0
141 -203 488 0
-203 -205 0
-141 -203 -488 0
-70 204 -469 0
-204 469 0
70 -204 0
65 -199 205 0
-65 -205 0
199 -205 0
206 -207 -446 0
206 207 -329 0
-206 207 329 0
-206 -207 446 0
-48 207 278 0
-207 -278 0
48 -207 0
208 209 210 -211 -214 0
208 -209 -210 -211 -214 0
-208 214 0
-208 -209 210 0
-208 211 0
-208 209 -210 0
209 434 448 0
-209 -434 0
-209 -448 0
210 -487 511 0
210 511 520 0
210 475 487 -511 0
-210 -475 -511 0
-210 487 511 -520 0
-210 -487 -511 0
211 -482 495 0
211 -212 213 0
211 213 -482 0
211 -212 495 0
-211 212 482 0
-211 -213 -495 0
-207 212 314 0
-212 -314 0
207 -212 0
-207 213 327 0
-213 -327 0
207 -213 0
214 -215 225 -226 -228 0
-214 228 0
-214 215 0
-214 226 0
-214 -225 0
215 -216 -217 -218 -220 0
-215 220 0
-215 216 0
-215 218 0
-215 217 0
216 -358 497 0
216 -329 519 0
216 -329 -358 0
216 497 519 0
-216 358 -519 0
-216 329 -497 0
217 -461 -491 0
217 439 -470 0
217 439 -461 0
217 -470 -491 0
-217 -439 491 0
-217 461 470 0
191 218 -219 499 0
191 218 -219 -377 0
-218 219 0
-191 -218 0
-218 377 -499 0
219 358 477 0
219 -476 -519 0
219 358 -476 0
219 477 -519 0
-219 -358 519 0
-219 476 -477 0
220 -221 -222 378 0
220 -221 -222 -505 0
-220 222 0
-220 221 0
-220 -378 505 0
221 -436 461 0
221 -462 473 0
221 461 473 0
221 -436 -462 0
-221 -461 462 0
-221 436 -473 0
222 223 -224 329 0
222 223 -224 -497 0
-222 224 0
-222 -223 0
-222 -329 497 0
223 439 -491 0
-223 -439 0
-223 491 0
224 442 465 0
224 -491 -500 0
224 465 -500 0
224 442 -491 0
-224 -465 491 0
-224 -442 500 0
225 461 -469 472 0
225 461 468 -469 0
-225 -461 0
-225 469 0
-225 -468 -472 0
226 227 497 0
226 227 -496 0
226 227 495 0
-226 -227 0
-226 -495 496 -497 0
227 473 -474 -475 0
-227 475 0
-227 474 0
-227 -473 0
-99 228 -229 -230 -231 0
-228 231 0
99 -228 0
-228 230 0
-228 229 0
229 -378 500 0
229 -442 505 0
229 -378 -442 0
229 500 505 0
-229 378 -505 0
-229 442 -500 0
230 -310 -499 0
230 377 478 0
230 478 -499 0
230 -310 377 0
-230 -377 499 0
-230 310 -478 0
231 -449 -473 -478 -498 0
-231 498 0
-231 449 0
-231 478 0
-231 473 0
180 232 -233 235 0
232 -233 235 469 0
-232 233 0
-232 -235 0
-180 -232 -469 0
233 234 460 503 0
184 233 -234 -503 0
233 -234 460 -503 0
184 233 234 503 0
-233 -234 503 0
-233 234 -503 0
-184 -233 -460 0
-99 234 -445 0
-234 445 0
99 -234 0
98 235 -460 0
235 458 -459 -460 0
-235 460 0
-98 -235 -458 0
-98 -235 459 0
-99 236 -351 0
99 189 236 0
-99 -236 351 0
99 -189 -236 0
90 237 238 -242 -476 0
-90 237 238 -242 476 0
-237 242 0
90 -237 476 0
-237 -238 0
-90 -237 -476 0
28 238 -239 0
-28 238 239 0
-28 -238 -239 0
28 -238 239 0
239 240 -241 0
239 -241 -511 0
239 -241 -487 0
-239 241 0
-239 -240 487 511 0
240 -476 509 -510 512 0
-240 510 0
-240 -512 0
-240 476 0
-240 -509 0
241 511 512 0
241 487 509 0
241 509 512 0
241 487 511 0
-241 -509 -511 0
-241 -487 -512 0
-35 242 -243 -256 -273 0
35 242 -243 -256 273 0
-242 243 0
35 -242 -273 0
-242 256 0
-35 -242 273 0
243 -244 -249 -253 0
243 244 249 -253 0
-243 253 0
-243 -244 249 0
-243 244 -249 0
244 -246 481 0
244 245 -246 483 0
-244 246 0
-244 -245 -481 0
-244 -481 -483 0
245 459 -493 0
-245 -459 0
-245 493 0
246 247 248 482 0
246 -247 459 482 0
-246 -482 0
-246 247 -248 0
-246 -247 -459 0
247 -460 -494 0
-247 460 0
-247 494 0
248 -483 -493 0
-248 483 0
-248 493 0
-212 249 -251 313 0
-212 249 -250 -251 0
-249 251 0
212 -249 0
-249 250 -313 0
250 315 325 0
250 -291 315 0
-250 -315 0
-250 291 -325 0
251 252 315 0
251 -252 291 0
251 252 325 0
-251 -252 -291 0
-251 252 -315 -325 0
252 -292 -326 0
-252 292 0
-252 326 0
-139 253 -255 478 0
139 253 -254 -478 0
-139 253 -254 478 0
139 253 -255 -478 0
-139 -253 -478 0
139 -253 478 0
-253 254 255 0
254 -472 -507 0
-181 254 -507 0
-254 507 0
181 -254 472 0
-207 255 447 0
13 -207 255 304 0
207 -255 0
-13 -255 -447 0
-255 -304 -447 0
254 256 -257 -267 0
255 256 -257 -267 0
-256 267 0
-256 257 0
-254 -255 -256 0
257 -258 -263 264 266 0
-257 263 0
-257 -266 0
-257 258 0
-257 -264 0
258 259 260 261 262 0
258 -259 -260 261 262 0
-258 -261 0
-258 -259 260 0
-258 -262 0
-258 259 -260 0
259 521 522 0
259 516 -522 0
259 -516 522 0
-259 -516 -522 0
-259 516 -521 522 0
260 450 451 0
260 355 -451 0
260 -355 451 0
-260 -355 -451 0
-260 355 -450 451 0
261 353 -501 0
99 261 -501 0
-261 501 0
-99 -261 -353 0
-212 262 -482 0
-262 482 0
212 -262 0
-213 263 -460 0
98 263 -495 0
263 -460 -495 0
98 -213 263 0
213 -263 495 0
-98 -263 460 0
264 -265 -453 0
264 -453 455 -457 0
-264 453 0
-264 265 -455 0
-264 265 457 0
265 -452 454 -455 456 0
-265 455 0
-265 -456 0
-265 452 0
-265 -454 0
-99 266 -353 501 0
-266 353 0
-266 -501 0
99 -266 0
267 -268 -269 496 0
267 268 -269 -496 0
-267 269 0
-267 268 496 0
-267 -268 -496 0
-207 268 328 0
-268 -328 0
207 -268 0
-162 269 465 0
269 -270 465 0
162 269 -270 -272 0
-162 -269 -465 0
162 -269 270 0
-269 272 -465 0
270 271 -465 -466 0
270 271 -465 467 0
-270 465 0
-270 -271 0
-270 466 -467 0
271 -463 464 0
-271 463 0
-271 -464 0
272 -466 -484 0
272 -484 -485 0
-272 484 0
-272 466 485 0
273 -487 509 0
273 487 508 0
-273 487 -508 0
-273 -487 -509 0
1 2 0
-1 -2 0
523 0

